p cnf 45 335
1 6 11 16 21 26 31 36 41 0
2 7 12 17 22 27 32 37 42 0
3 8 13 18 23 28 33 38 43 0
4 9 14 19 24 29 34 39 44 0
5 10 15 20 25 30 35 40 45 0
-1 -2 0
-1 -3 0
-1 -4 0
-1 -5 0
-2 -3 0
-2 -4 0
-2 -5 0
-3 -4 0
-3 -5 0
-4 -5 0
-6 -7 0
-6 -8 0
-6 -9 0
-6 -10 0
-7 -8 0
-7 -9 0
-7 -10 0
-8 -9 0
-8 -10 0
-9 -10 0
-11 -12 0
-11 -13 0
-11 -14 0
-11 -15 0
-12 -13 0
-12 -14 0
-12 -15 0
-13 -14 0
-13 -15 0
-14 -15 0
-16 -17 0
-16 -18 0
-16 -19 0
-16 -20 0
-17 -18 0
-17 -19 0
-17 -20 0
-18 -19 0
-18 -20 0
-19 -20 0
-21 -22 0
-21 -23 0
-21 -24 0
-21 -25 0
-22 -23 0
-22 -24 0
-22 -25 0
-23 -24 0
-23 -25 0
-24 -25 0
-26 -27 0
-26 -28 0
-26 -29 0
-26 -30 0
-27 -28 0
-27 -29 0
-27 -30 0
-28 -29 0
-28 -30 0
-29 -30 0
-31 -32 0
-31 -33 0
-31 -34 0
-31 -35 0
-32 -33 0
-32 -34 0
-32 -35 0
-33 -34 0
-33 -35 0
-34 -35 0
-36 -37 0
-36 -38 0
-36 -39 0
-36 -40 0
-37 -38 0
-37 -39 0
-37 -40 0
-38 -39 0
-38 -40 0
-39 -40 0
-41 -42 0
-41 -43 0
-41 -44 0
-41 -45 0
-42 -43 0
-42 -44 0
-42 -45 0
-43 -44 0
-43 -45 0
-44 -45 0
-1 -7 0
-1 -8 0
-1 -9 0
-1 -10 0
-2 -6 0
-2 -8 0
-2 -9 0
-2 -10 0
-3 -6 0
-3 -7 0
-3 -9 0
-3 -10 0
-4 -6 0
-4 -7 0
-4 -8 0
-4 -10 0
-5 -6 0
-5 -7 0
-5 -8 0
-5 -9 0
-1 -17 0
-1 -18 0
-1 -19 0
-1 -20 0
-2 -16 0
-2 -18 0
-2 -19 0
-2 -20 0
-3 -16 0
-3 -17 0
-3 -19 0
-3 -20 0
-4 -16 0
-4 -17 0
-4 -18 0
-4 -20 0
-5 -16 0
-5 -17 0
-5 -18 0
-5 -19 0
-1 -22 0
-1 -23 0
-1 -24 0
-1 -25 0
-2 -21 0
-2 -23 0
-2 -24 0
-2 -25 0
-3 -21 0
-3 -22 0
-3 -24 0
-3 -25 0
-4 -21 0
-4 -22 0
-4 -23 0
-4 -25 0
-5 -21 0
-5 -22 0
-5 -23 0
-5 -24 0
-1 -32 0
-1 -33 0
-1 -34 0
-1 -35 0
-2 -31 0
-2 -33 0
-2 -34 0
-2 -35 0
-3 -31 0
-3 -32 0
-3 -34 0
-3 -35 0
-4 -31 0
-4 -32 0
-4 -33 0
-4 -35 0
-5 -31 0
-5 -32 0
-5 -33 0
-5 -34 0
-6 -17 0
-6 -18 0
-6 -19 0
-6 -20 0
-7 -16 0
-7 -18 0
-7 -19 0
-7 -20 0
-8 -16 0
-8 -17 0
-8 -19 0
-8 -20 0
-9 -16 0
-9 -17 0
-9 -18 0
-9 -20 0
-10 -16 0
-10 -17 0
-10 -18 0
-10 -19 0
-6 -27 0
-6 -28 0
-6 -29 0
-6 -30 0
-7 -26 0
-7 -28 0
-7 -29 0
-7 -30 0
-8 -26 0
-8 -27 0
-8 -29 0
-8 -30 0
-9 -26 0
-9 -27 0
-9 -28 0
-9 -30 0
-10 -26 0
-10 -27 0
-10 -28 0
-10 -29 0
-6 -32 0
-6 -33 0
-6 -34 0
-6 -35 0
-7 -31 0
-7 -33 0
-7 -34 0
-7 -35 0
-8 -31 0
-8 -32 0
-8 -34 0
-8 -35 0
-9 -31 0
-9 -32 0
-9 -33 0
-9 -35 0
-10 -31 0
-10 -32 0
-10 -33 0
-10 -34 0
-11 -17 0
-11 -18 0
-11 -19 0
-11 -20 0
-12 -16 0
-12 -18 0
-12 -19 0
-12 -20 0
-13 -16 0
-13 -17 0
-13 -19 0
-13 -20 0
-14 -16 0
-14 -17 0
-14 -18 0
-14 -20 0
-15 -16 0
-15 -17 0
-15 -18 0
-15 -19 0
-11 -42 0
-11 -43 0
-11 -44 0
-11 -45 0
-12 -41 0
-12 -43 0
-12 -44 0
-12 -45 0
-13 -41 0
-13 -42 0
-13 -44 0
-13 -45 0
-14 -41 0
-14 -42 0
-14 -43 0
-14 -45 0
-15 -41 0
-15 -42 0
-15 -43 0
-15 -44 0
-21 -27 0
-21 -28 0
-21 -29 0
-21 -30 0
-22 -26 0
-22 -28 0
-22 -29 0
-22 -30 0
-23 -26 0
-23 -27 0
-23 -29 0
-23 -30 0
-24 -26 0
-24 -27 0
-24 -28 0
-24 -30 0
-25 -26 0
-25 -27 0
-25 -28 0
-25 -29 0
-21 -42 0
-21 -43 0
-21 -44 0
-21 -45 0
-22 -41 0
-22 -43 0
-22 -44 0
-22 -45 0
-23 -41 0
-23 -42 0
-23 -44 0
-23 -45 0
-24 -41 0
-24 -42 0
-24 -43 0
-24 -45 0
-25 -41 0
-25 -42 0
-25 -43 0
-25 -44 0
-31 -42 0
-31 -43 0
-31 -44 0
-31 -45 0
-32 -41 0
-32 -43 0
-32 -44 0
-32 -45 0
-33 -41 0
-33 -42 0
-33 -44 0
-33 -45 0
-34 -41 0
-34 -42 0
-34 -43 0
-34 -45 0
-35 -41 0
-35 -42 0
-35 -43 0
-35 -44 0
